
Cover cuts applied:  117
Implied bound cuts applied:  5
Flow cuts applied:  44
Mixed integer rounding cuts applied:  31
Zero-half cuts applied:  7
Lift and project cuts applied:  4
Gomory fractional cuts applied:  3

Root node processing (before b&c):
  Real time             =    0.11 sec. (75.65 ticks)
Parallel b&c, 4 threads:
  Real time             =    0.28 sec. (218.87 ticks)
  Sync time (average)   =    0.03 sec.
  Wait time (average)   =    0.00 sec.
                          ------------
Total (root+branch&cut) =    0.39 sec. (294.51 ticks)
Version identifier: 12.10.0.0 | 2019-11-26 | 843d4de
CPXPARAM_MIP_Interval                            10
CPXPARAM_MIP_Tolerances_AbsMIPGap                0.98999999999999999
Tried aggregator 2 times.
MIP Presolve eliminated 1688 rows and 1095 columns.
MIP Presolve modified 9 coefficients.
Aggregator did 41 substitutions.
Reduced MIP has 146 rows, 139 columns, and 496 nonzeros.
Reduced MIP has 61 binaries, 78 generals, 0 SOSs, and 0 indicators.
Presolve time = 0.00 sec. (1.74 ticks)
Probing fixed 0 vars, tightened 7 bounds.
Probing changed sense of 4 constraints.
Probing time = 0.00 sec. (0.03 ticks)
Tried aggregator 1 time.
Detecting symmetries...
MIP Presolve eliminated 7 rows and 6 columns.
MIP Presolve modified 9 coefficients.
Reduced MIP has 139 rows, 133 columns, and 471 nonzeros.
Reduced MIP has 57 binaries, 76 generals, 0 SOSs, and 0 indicators.
Presolve time = 0.00 sec. (0.33 ticks)
Probing time = 0.00 sec. (0.03 ticks)
Clique table members: 12.
MIP emphasis: balance optimality and feasibility.
MIP search method: dynamic search.
Parallel mode: deterministic, using up to 4 threads.
Root relaxation solution time = 0.00 sec. (1.29 ticks)

        Nodes                                         Cuts/
   Node  Left     Objective  IInf  Best Integer    Best Bound    ItCnt     Gap

      0     0       15.6667    54                     15.6667      185         
      0     0       15.6667    54                    Cuts: 38      244         
      0     0       15.5000    54                    Cuts: 28      282         
      0     0       15.4286    54                    Cuts: 61      320         
      0     0       15.4286    54                    Cuts: 28      338         
      0     0       15.4074    54                    Cuts: 48      368         
Detecting symmetries...
      0     0       15.2500    54                    Cuts: 39      389         
      0     0       14.9286    54                    Cuts: 40      437         
      0     0       14.8571    54                    Cuts: 45      470         
      0     0       14.8571    54                    Cuts: 35      495         
*     0+    0                           12.0000       14.8571            23.81%
*     0+    0                           14.0000       14.8571             6.12%
      0     0        cutoff             14.0000       14.0000      495    0.00%
Elapsed time = 0.05 sec. (28.98 ticks, tree = 0.01 MB, solutions = 2)
the number of Nodes = 0
